(set-logic QF_SLIA)
(declare-const result String)
(declare-const attack String)
(declare-const prefix RegLan)
(declare-const infix RegLan)
(declare-const postfix RegLan)
(declare-const postfixs String)

(assert (str.in_re attack (re.++ prefix ((_ re.loop 5000 5000) infix) postfix)))
(assert (= prefix 
     (re.++  (re.++ (re.+ (re.union (re.range "a" "z") (re.range "A" "Z") (re.range "0" "9") (str.to_re "_")) ) (re.++ (re.+ (re.union (re.range "\t" "\t") (re.range "\n" "\n") (re.range "\r" "\r") (str.to_re " ")) ) (re.++  (str.to_re "\x4d") (re.++  (str.to_re "\x61") (re.++  (str.to_re "\x63") (re.++  (str.to_re "\x20") (re.++  (str.to_re "\x4f") (re.++  (str.to_re "\x53") (re.++  (str.to_re "\x20") (re.++  (str.to_re "\x58") (re.++ (re.+ (re.union (re.range "\t" "\t") (re.range "\n" "\n") (re.range "\r" "\r") (str.to_re " ")) ) (re.++ (re.+ (re.union (re.range "a" "z") (re.range "A" "Z") (re.range "0" "9") (str.to_re "_")) ) (re.++ (re.+ (re.union (re.range "\t" "\t") (re.range "\n" "\n") (re.range "\r" "\r") (str.to_re " ")) ) (re.++ (re.+ (re.range "0" "9") ) re.allchar)))))))))))))) (re.+ (re.range "0" "9") ))
))
(assert (= infix 
         (re.++  (re.++ (re.+ (re.range "0" "9") ) (re.+ (re.range "0" "9") )) (re.++  (str.to_re "\x26") (re.++  (re.++ (re.+ (re.range "0" "9") ) (re.++  (re.union  (str.to_re "\x0a")  (str.to_re "\x0d")) (re.+ (re.range "0" "9") ))) (re.++  (str.to_re "\x26") (re.+ re.allchar )))))
))
(assert (= postfix 
        (re.inter  (re.inter  (re.++  (str.to_re "\x30") (re.++  (str.to_re "\x30") (re.++  (str.to_re "\x30") (re.*  (re.union (re.union (str.to_re "\t") (str.to_re "\n") (str.to_re "\r") (str.to_re " ")) (re.inter re.allchar (re.comp (re.union (str.to_re "\t") (str.to_re "\n") (str.to_re "\r") (str.to_re " "))))) )))) (re.comp (re.+ (re.range "0" "9") )))  (re.inter  (re.++  (str.to_re "\x30") (re.++  (str.to_re "\x30") (re.++  (str.to_re "\x30") (re.*  (re.union (re.union (str.to_re "\t") (str.to_re "\n") (str.to_re "\r") (str.to_re " ")) (re.inter re.allchar (re.comp (re.union (str.to_re "\t") (str.to_re "\n") (str.to_re "\r") (str.to_re " "))))) )))) (re.comp  (re.++ (re.+ (re.range "0" "9") ) (re.* re.allchar )))) )
))
(assert (str.in_re postfixs postfix))
(assert (>= (str.len postfixs) 1))
(assert (= result (str.++ attack postfixs)))
(check-sat)
(get-model)